letting n =  10
letting blocks =  [[1, 1], [1, 3], [1, 5], [1, 7], [1, 9], [1, 10], [2, 1], [2, 2], [2, 4], [2, 5], [2, 7], [3, 1], [3, 2], [3, 7], [3, 8], [4, 4], [4, 5], [4, 8], [5, 3], [5, 4], [5, 5], [5, 9], [5, 10], [6, 2], [6, 3], [6, 5], [6, 9], [7, 1], [7, 2], [7, 5], [7, 10], [8, 1], [8, 2], [8, 3], [8, 4], [8, 7], [8, 10], [9, 1], [9, 3], [9, 4], [9, 10], [10, 2], [10, 6], [10, 8]]
